# Small Lennard-Jones particle simulation for testing LAMMPS

units           lj
dimension       3
boundary        p p p
atom_style      atomic

lattice         fcc 0.8442
region          simulation_box block 0 10 0 10 0 10
create_box      1 simulation_box
create_atoms    1 simulation_box

mass            1 1.0

pair_style      lj/cut 2.5
pair_coeff      1 1 1.0 1.0 2.5

neighbor        0.3 bin
neigh_modify    delay 0 every 1 check yes

velocity        all create 1.44 87287 loop geom

fix             integration all nve
timestep        0.005

thermo          100
thermo_style    custom step atoms temp pe ke etotal press

run             1000

write_data      final_configuration.data
